p cnf 7230 17
-3742 -3746 -3752 4334 -4337 0
-4335 4337 0
3742 -4335 0
3738 -4339 0
-2034 -3738 4338 0
2034 -4339 0
3746 -4335 0
-4338 4339 0
-4334 4335 0
-3740 4337 0
4336 -4337 0
3740 -4336 0
3752 -4335 0
-4332 4333 0
4332 -4333 0
3736 -4341 0
3738 -4341 0
